Maximize
 obj: + x0 + x1 + x2 + x3 + x4 + x5 + x6 + x7 + x8 + x9 + x10 + x11 + x12 + x13 + x14 + x15 + x16 + x17 + x18 + x19 + x20 + x21 + x22 + x23 + x24 + x25 + x26 + x27 + x28 + x29 + x30 + x31 + x32 + x33 + x34 + x35 + x36 + x37 + x38 + x39 + x40 + x41 + x42 + x43 + x44 + x45 + x46 + x47 + x48 + x49 + x50 + x51 + x52 + x53 + x54 + x55 + x56 + x57 + x58 + x59 + x60 + x61 + x62 + x63 + x64 + x65 + x66 + x67 + x68 + x69 + x70 + x71 + x72 + x73 + x74 + x75 + x76 + x77 + x78 + x79 + x80 + x81 + x82 + x83 + x84 + x85 + x86 + x87 + x88 + x89 + x90 + x91 + x92 + x93 + x94 + x95 + x96 + x97 + x98 + x99 + x100 + x101 + x102 + x103 + x104 + x105 + x106 + x107 + x108 + x109 + x110 + x111 + x112 + x113 + x114 + x115 + x116 + x117 + x118 + x119 + x120 + x121 + x122 + x123 + x124
Subject To
c0:  +1 x0 + x1 + x2 + x3 + x4 + x5 + x10 + x15 + x20 + x25 + x50 + x75 + x100 <= 1
c1:  +2 x1 + x0 + x2 + x3 + x4 + x5 + x6 + x10 + x11 + x15 + x16 + x20 + x21 + x25 + x26 + x50 + x51 + x75 + x76 + x100 + x101 <= 2
c2:  +4 x2 + x0 + x1 + x3 + x4 + x5 + x6 + x7 + x10 + x11 + x12 + x15 + x16 + x17 + x20 + x21 + x22 + x25 + x26 + x27 + x50 + x51 + x52 + x75 + x76 + x77 + x100 + x101 + x102 <= 4
c3:  +6 x3 + x0 + x1 + x2 + x4 + x5 + x6 + x7 + x8 + x10 + x11 + x12 + x13 + x15 + x16 + x17 + x18 + x20 + x21 + x22 + x23 + x25 + x26 + x27 + x28 + x50 + x51 + x52 + x53 + x75 + x76 + x77 + x78 + x100 + x101 + x102 + x103 <= 6
c4:  +8 x4 + x0 + x1 + x2 + x3 + x5 + x6 + x7 + x8 + x9 + x10 + x11 + x12 + x13 + x14 + x15 + x16 + x17 + x18 + x19 + x20 + x21 + x22 + x23 + x24 + x25 + x26 + x27 + x28 + x29 + x50 + x51 + x52 + x53 + x54 + x75 + x76 + x77 + x78 + x79 + x100 + x101 + x102 + x103 + x104 <= 8
c5:  +2 x5 + x0 + x1 + x2 + x3 + x4 + x6 + x7 + x8 + x9 + x10 + x15 + x20 + x25 + x30 + x50 + x55 + x75 + x80 + x100 + x105 <= 2
c6:  +6 x6 + x1 + x2 + x3 + x4 + x5 + x7 + x8 + x9 + x10 + x11 + x15 + x16 + x20 + x21 + x26 + x30 + x31 + x51 + x55 + x56 + x76 + x80 + x81 + x101 + x105 + x106 <= 6
c7:  +6 x7 + x2 + x3 + x4 + x5 + x6 + x8 + x9 + x10 + x11 + x12 + x15 + x16 + x17 + x20 + x21 + x22 + x27 + x30 + x31 + x32 + x52 + x55 + x56 + x57 + x77 + x80 + x81 + x82 + x102 + x105 + x106 + x107 <= 6
c8:  +8 x8 + x3 + x4 + x5 + x6 + x7 + x9 + x10 + x11 + x12 + x13 + x15 + x16 + x17 + x18 + x20 + x21 + x22 + x23 + x28 + x30 + x31 + x32 + x33 + x53 + x55 + x56 + x57 + x58 + x78 + x80 + x81 + x82 + x83 + x103 + x105 + x106 + x107 + x108 <= 8
c9:  +8 x9 + x4 + x5 + x6 + x7 + x8 + x10 + x11 + x12 + x13 + x14 + x15 + x16 + x17 + x18 + x19 + x20 + x21 + x22 + x23 + x24 + x29 + x30 + x31 + x32 + x33 + x34 + x54 + x55 + x56 + x57 + x58 + x59 + x79 + x80 + x81 + x82 + x83 + x84 + x104 + x105 + x106 + x107 + x108 + x109 <= 8
c10:  +4 x10 + x0 + x1 + x2 + x3 + x4 + x5 + x6 + x7 + x8 + x9 + x11 + x12 + x13 + x14 + x15 + x20 + x25 + x30 + x35 + x50 + x55 + x60 + x75 + x80 + x85 + x100 + x105 + x110 <= 4
c11:  +6 x11 + x1 + x2 + x3 + x4 + x6 + x7 + x8 + x9 + x10 + x12 + x13 + x14 + x15 + x16 + x20 + x21 + x26 + x31 + x35 + x36 + x51 + x56 + x60 + x61 + x76 + x81 + x85 + x86 + x101 + x106 + x110 + x111 <= 6
c12:  +7 x12 + x2 + x3 + x4 + x7 + x8 + x9 + x10 + x11 + x13 + x14 + x15 + x16 + x17 + x20 + x21 + x22 + x27 + x32 + x35 + x36 + x37 + x52 + x57 + x60 + x61 + x62 + x77 + x82 + x85 + x86 + x87 + x102 + x107 + x110 + x111 + x112 <= 7
c13:  +7 x13 + x3 + x4 + x8 + x9 + x10 + x11 + x12 + x14 + x15 + x16 + x17 + x18 + x20 + x21 + x22 + x23 + x28 + x33 + x35 + x36 + x37 + x38 + x53 + x58 + x60 + x61 + x62 + x63 + x78 + x83 + x85 + x86 + x87 + x88 + x103 + x108 + x110 + x111 + x112 + x113 <= 7
c14:  +7 x14 + x4 + x9 + x10 + x11 + x12 + x13 + x15 + x16 + x17 + x18 + x19 + x20 + x21 + x22 + x23 + x24 + x29 + x34 + x35 + x36 + x37 + x38 + x39 + x54 + x59 + x60 + x61 + x62 + x63 + x64 + x79 + x84 + x85 + x86 + x87 + x88 + x89 + x104 + x109 + x110 + x111 + x112 + x113 + x114 <= 7
c15:  +6 x15 + x0 + x1 + x2 + x3 + x4 + x5 + x6 + x7 + x8 + x9 + x10 + x11 + x12 + x13 + x14 + x16 + x17 + x18 + x19 + x20 + x25 + x30 + x35 + x40 + x50 + x55 + x60 + x65 + x75 + x80 + x85 + x90 + x100 + x105 + x110 + x115 <= 6
c16:  +8 x16 + x1 + x2 + x3 + x4 + x6 + x7 + x8 + x9 + x11 + x12 + x13 + x14 + x15 + x17 + x18 + x19 + x20 + x21 + x26 + x31 + x36 + x40 + x41 + x51 + x56 + x61 + x65 + x66 + x76 + x81 + x86 + x90 + x91 + x101 + x106 + x111 + x115 + x116 <= 8
c17:  +7 x17 + x2 + x3 + x4 + x7 + x8 + x9 + x12 + x13 + x14 + x15 + x16 + x18 + x19 + x20 + x21 + x22 + x27 + x32 + x37 + x40 + x41 + x42 + x52 + x57 + x62 + x65 + x66 + x67 + x77 + x82 + x87 + x90 + x91 + x92 + x102 + x107 + x112 + x115 + x116 + x117 <= 7
c18:  +6 x18 + x3 + x4 + x8 + x9 + x13 + x14 + x15 + x16 + x17 + x19 + x20 + x21 + x22 + x23 + x28 + x33 + x38 + x40 + x41 + x42 + x43 + x53 + x58 + x63 + x65 + x66 + x67 + x68 + x78 + x83 + x88 + x90 + x91 + x92 + x93 + x103 + x108 + x113 + x115 + x116 + x117 + x118 <= 6
c19:  +6 x19 + x4 + x9 + x14 + x15 + x16 + x17 + x18 + x20 + x21 + x22 + x23 + x24 + x29 + x34 + x39 + x40 + x41 + x42 + x43 + x44 + x54 + x59 + x64 + x65 + x66 + x67 + x68 + x69 + x79 + x84 + x89 + x90 + x91 + x92 + x93 + x94 + x104 + x109 + x114 + x115 + x116 + x117 + x118 + x119 <= 6
c20:  +8 x20 + x0 + x1 + x2 + x3 + x4 + x5 + x6 + x7 + x8 + x9 + x10 + x11 + x12 + x13 + x14 + x15 + x16 + x17 + x18 + x19 + x21 + x22 + x23 + x24 + x25 + x30 + x35 + x40 + x45 + x50 + x55 + x60 + x65 + x70 + x75 + x80 + x85 + x90 + x95 + x100 + x105 + x110 + x115 + x120 <= 8
c21:  +8 x21 + x1 + x2 + x3 + x4 + x6 + x7 + x8 + x9 + x11 + x12 + x13 + x14 + x16 + x17 + x18 + x19 + x20 + x22 + x23 + x24 + x26 + x31 + x36 + x41 + x45 + x46 + x51 + x56 + x61 + x66 + x70 + x71 + x76 + x81 + x86 + x91 + x95 + x96 + x101 + x106 + x111 + x116 + x120 + x121 <= 8
c22:  +7 x22 + x2 + x3 + x4 + x7 + x8 + x9 + x12 + x13 + x14 + x17 + x18 + x19 + x20 + x21 + x23 + x24 + x27 + x32 + x37 + x42 + x45 + x46 + x47 + x52 + x57 + x62 + x67 + x70 + x71 + x72 + x77 + x82 + x87 + x92 + x95 + x96 + x97 + x102 + x107 + x112 + x117 + x120 + x121 + x122 <= 7
c23:  +6 x23 + x3 + x4 + x8 + x9 + x13 + x14 + x18 + x19 + x20 + x21 + x22 + x24 + x28 + x33 + x38 + x43 + x45 + x46 + x47 + x48 + x53 + x58 + x63 + x68 + x70 + x71 + x72 + x73 + x78 + x83 + x88 + x93 + x95 + x96 + x97 + x98 + x103 + x108 + x113 + x118 + x120 + x121 + x122 + x123 <= 6
c24:  +5 x24 + x4 + x9 + x14 + x19 + x20 + x21 + x22 + x23 + x29 + x34 + x39 + x44 + x45 + x46 + x47 + x48 + x49 + x54 + x59 + x64 + x69 + x70 + x71 + x72 + x73 + x74 + x79 + x84 + x89 + x94 + x95 + x96 + x97 + x98 + x99 + x104 + x109 + x114 + x119 + x120 + x121 + x122 + x123 + x124 <= 5
c25:  +2 x25 + x0 + x1 + x2 + x3 + x4 + x5 + x10 + x15 + x20 + x26 + x27 + x28 + x29 + x30 + x35 + x40 + x45 + x50 + x75 + x100 <= 2
c26:  +3 x26 + x1 + x2 + x3 + x4 + x6 + x11 + x16 + x21 + x25 + x27 + x28 + x29 + x30 + x31 + x35 + x36 + x40 + x41 + x45 + x46 + x50 + x51 + x75 + x76 + x100 + x101 <= 3
c27:  +5 x27 + x2 + x3 + x4 + x7 + x12 + x17 + x22 + x25 + x26 + x28 + x29 + x30 + x31 + x32 + x35 + x36 + x37 + x40 + x41 + x42 + x45 + x46 + x47 + x50 + x51 + x52 + x75 + x76 + x77 + x100 + x101 + x102 <= 5
c28:  +7 x28 + x3 + x4 + x8 + x13 + x18 + x23 + x25 + x26 + x27 + x29 + x30 + x31 + x32 + x33 + x35 + x36 + x37 + x38 + x40 + x41 + x42 + x43 + x45 + x46 + x47 + x48 + x50 + x51 + x52 + x53 + x75 + x76 + x77 + x78 + x100 + x101 + x102 + x103 <= 7
c29:  +9 x29 + x4 + x9 + x14 + x19 + x24 + x25 + x26 + x27 + x28 + x30 + x31 + x32 + x33 + x34 + x35 + x36 + x37 + x38 + x39 + x40 + x41 + x42 + x43 + x44 + x45 + x46 + x47 + x48 + x49 + x50 + x51 + x52 + x53 + x54 + x75 + x76 + x77 + x78 + x79 + x100 + x101 + x102 + x103 + x104 <= 9
c30:  +3 x30 + x5 + x6 + x7 + x8 + x9 + x10 + x15 + x20 + x25 + x26 + x27 + x28 + x29 + x31 + x32 + x33 + x34 + x35 + x40 + x45 + x50 + x55 + x75 + x80 + x100 + x105 <= 3
c31:  +6 x31 + x6 + x7 + x8 + x9 + x11 + x16 + x21 + x26 + x27 + x28 + x29 + x30 + x32 + x33 + x34 + x35 + x36 + x40 + x41 + x45 + x46 + x51 + x55 + x56 + x76 + x80 + x81 + x101 + x105 + x106 <= 6
c32:  +6 x32 + x7 + x8 + x9 + x12 + x17 + x22 + x27 + x28 + x29 + x30 + x31 + x33 + x34 + x35 + x36 + x37 + x40 + x41 + x42 + x45 + x46 + x47 + x52 + x55 + x56 + x57 + x77 + x80 + x81 + x82 + x102 + x105 + x106 + x107 <= 6
c33:  +8 x33 + x8 + x9 + x13 + x18 + x23 + x28 + x29 + x30 + x31 + x32 + x34 + x35 + x36 + x37 + x38 + x40 + x41 + x42 + x43 + x45 + x46 + x47 + x48 + x53 + x55 + x56 + x57 + x58 + x78 + x80 + x81 + x82 + x83 + x103 + x105 + x106 + x107 + x108 <= 8
c34:  +8 x34 + x9 + x14 + x19 + x24 + x29 + x30 + x31 + x32 + x33 + x35 + x36 + x37 + x38 + x39 + x40 + x41 + x42 + x43 + x44 + x45 + x46 + x47 + x48 + x49 + x54 + x55 + x56 + x57 + x58 + x59 + x79 + x80 + x81 + x82 + x83 + x84 + x104 + x105 + x106 + x107 + x108 + x109 <= 8
c35:  +5 x35 + x10 + x11 + x12 + x13 + x14 + x15 + x20 + x25 + x26 + x27 + x28 + x29 + x30 + x31 + x32 + x33 + x34 + x36 + x37 + x38 + x39 + x40 + x45 + x50 + x55 + x60 + x75 + x80 + x85 + x100 + x105 + x110 <= 5
c36:  +6 x36 + x11 + x12 + x13 + x14 + x16 + x21 + x26 + x27 + x28 + x29 + x31 + x32 + x33 + x34 + x35 + x37 + x38 + x39 + x40 + x41 + x45 + x46 + x51 + x56 + x60 + x61 + x76 + x81 + x85 + x86 + x101 + x106 + x110 + x111 <= 6
c37:  +7 x37 + x12 + x13 + x14 + x17 + x22 + x27 + x28 + x29 + x32 + x33 + x34 + x35 + x36 + x38 + x39 + x40 + x41 + x42 + x45 + x46 + x47 + x52 + x57 + x60 + x61 + x62 + x77 + x82 + x85 + x86 + x87 + x102 + x107 + x110 + x111 + x112 <= 7
c38:  +7 x38 + x13 + x14 + x18 + x23 + x28 + x29 + x33 + x34 + x35 + x36 + x37 + x39 + x40 + x41 + x42 + x43 + x45 + x46 + x47 + x48 + x53 + x58 + x60 + x61 + x62 + x63 + x78 + x83 + x85 + x86 + x87 + x88 + x103 + x108 + x110 + x111 + x112 + x113 <= 7
c39:  +7 x39 + x14 + x19 + x24 + x29 + x34 + x35 + x36 + x37 + x38 + x40 + x41 + x42 + x43 + x44 + x45 + x46 + x47 + x48 + x49 + x54 + x59 + x60 + x61 + x62 + x63 + x64 + x79 + x84 + x85 + x86 + x87 + x88 + x89 + x104 + x109 + x110 + x111 + x112 + x113 + x114 <= 7
c40:  +7 x40 + x15 + x16 + x17 + x18 + x19 + x20 + x25 + x26 + x27 + x28 + x29 + x30 + x31 + x32 + x33 + x34 + x35 + x36 + x37 + x38 + x39 + x41 + x42 + x43 + x44 + x45 + x50 + x55 + x60 + x65 + x75 + x80 + x85 + x90 + x100 + x105 + x110 + x115 <= 7
c41:  +8 x41 + x16 + x17 + x18 + x19 + x21 + x26 + x27 + x28 + x29 + x31 + x32 + x33 + x34 + x36 + x37 + x38 + x39 + x40 + x42 + x43 + x44 + x45 + x46 + x51 + x56 + x61 + x65 + x66 + x76 + x81 + x86 + x90 + x91 + x101 + x106 + x111 + x115 + x116 <= 8
c42:  +7 x42 + x17 + x18 + x19 + x22 + x27 + x28 + x29 + x32 + x33 + x34 + x37 + x38 + x39 + x40 + x41 + x43 + x44 + x45 + x46 + x47 + x52 + x57 + x62 + x65 + x66 + x67 + x77 + x82 + x87 + x90 + x91 + x92 + x102 + x107 + x112 + x115 + x116 + x117 <= 7
c43:  +6 x43 + x18 + x19 + x23 + x28 + x29 + x33 + x34 + x38 + x39 + x40 + x41 + x42 + x44 + x45 + x46 + x47 + x48 + x53 + x58 + x63 + x65 + x66 + x67 + x68 + x78 + x83 + x88 + x90 + x91 + x92 + x93 + x103 + x108 + x113 + x115 + x116 + x117 + x118 <= 6
c44:  +6 x44 + x19 + x24 + x29 + x34 + x39 + x40 + x41 + x42 + x43 + x45 + x46 + x47 + x48 + x49 + x54 + x59 + x64 + x65 + x66 + x67 + x68 + x69 + x79 + x84 + x89 + x90 + x91 + x92 + x93 + x94 + x104 + x109 + x114 + x115 + x116 + x117 + x118 + x119 <= 6
c45:  +9 x45 + x20 + x21 + x22 + x23 + x24 + x25 + x26 + x27 + x28 + x29 + x30 + x31 + x32 + x33 + x34 + x35 + x36 + x37 + x38 + x39 + x40 + x41 + x42 + x43 + x44 + x46 + x47 + x48 + x49 + x50 + x55 + x60 + x65 + x70 + x75 + x80 + x85 + x90 + x95 + x100 + x105 + x110 + x115 + x120 <= 9
c46:  +8 x46 + x21 + x22 + x23 + x24 + x26 + x27 + x28 + x29 + x31 + x32 + x33 + x34 + x36 + x37 + x38 + x39 + x41 + x42 + x43 + x44 + x45 + x47 + x48 + x49 + x51 + x56 + x61 + x66 + x70 + x71 + x76 + x81 + x86 + x91 + x95 + x96 + x101 + x106 + x111 + x116 + x120 + x121 <= 8
c47:  +7 x47 + x22 + x23 + x24 + x27 + x28 + x29 + x32 + x33 + x34 + x37 + x38 + x39 + x42 + x43 + x44 + x45 + x46 + x48 + x49 + x52 + x57 + x62 + x67 + x70 + x71 + x72 + x77 + x82 + x87 + x92 + x95 + x96 + x97 + x102 + x107 + x112 + x117 + x120 + x121 + x122 <= 7
c48:  +6 x48 + x23 + x24 + x28 + x29 + x33 + x34 + x38 + x39 + x43 + x44 + x45 + x46 + x47 + x49 + x53 + x58 + x63 + x68 + x70 + x71 + x72 + x73 + x78 + x83 + x88 + x93 + x95 + x96 + x97 + x98 + x103 + x108 + x113 + x118 + x120 + x121 + x122 + x123 <= 6
c49:  +4 x49 + x24 + x29 + x34 + x39 + x44 + x45 + x46 + x47 + x48 + x54 + x59 + x64 + x69 + x70 + x71 + x72 + x73 + x74 + x79 + x84 + x89 + x94 + x95 + x96 + x97 + x98 + x99 + x104 + x109 + x114 + x119 + x120 + x121 + x122 + x123 + x124 <= 4
c50:  +3 x50 + x0 + x1 + x2 + x3 + x4 + x5 + x10 + x15 + x20 + x25 + x26 + x27 + x28 + x29 + x30 + x35 + x40 + x45 + x51 + x52 + x53 + x54 + x55 + x60 + x65 + x70 + x75 + x100 <= 3
c51:  +4 x51 + x1 + x2 + x3 + x4 + x6 + x11 + x16 + x21 + x26 + x27 + x28 + x29 + x31 + x36 + x41 + x46 + x50 + x52 + x53 + x54 + x55 + x56 + x60 + x61 + x65 + x66 + x70 + x71 + x75 + x76 + x100 + x101 <= 4
c52:  +6 x52 + x2 + x3 + x4 + x7 + x12 + x17 + x22 + x27 + x28 + x29 + x32 + x37 + x42 + x47 + x50 + x51 + x53 + x54 + x55 + x56 + x57 + x60 + x61 + x62 + x65 + x66 + x67 + x70 + x71 + x72 + x75 + x76 + x77 + x100 + x101 + x102 <= 6
c53:  +8 x53 + x3 + x4 + x8 + x13 + x18 + x23 + x28 + x29 + x33 + x38 + x43 + x48 + x50 + x51 + x52 + x54 + x55 + x56 + x57 + x58 + x60 + x61 + x62 + x63 + x65 + x66 + x67 + x68 + x70 + x71 + x72 + x73 + x75 + x76 + x77 + x78 + x100 + x101 + x102 + x103 <= 8
c54:  +9 x54 + x4 + x9 + x14 + x19 + x24 + x29 + x34 + x39 + x44 + x49 + x50 + x51 + x52 + x53 + x55 + x56 + x57 + x58 + x59 + x60 + x61 + x62 + x63 + x64 + x65 + x66 + x67 + x68 + x69 + x70 + x71 + x72 + x73 + x74 + x75 + x76 + x77 + x78 + x79 + x100 + x101 + x102 + x103 + x104 <= 9
c55:  +4 x55 + x5 + x6 + x7 + x8 + x9 + x10 + x15 + x20 + x30 + x31 + x32 + x33 + x34 + x35 + x40 + x45 + x50 + x51 + x52 + x53 + x54 + x56 + x57 + x58 + x59 + x60 + x65 + x70 + x75 + x80 + x100 + x105 <= 4
c56:  +6 x56 + x6 + x7 + x8 + x9 + x11 + x16 + x21 + x31 + x32 + x33 + x34 + x36 + x41 + x46 + x51 + x52 + x53 + x54 + x55 + x57 + x58 + x59 + x60 + x61 + x65 + x66 + x70 + x71 + x76 + x80 + x81 + x101 + x105 + x106 <= 6
c57:  +7 x57 + x7 + x8 + x9 + x12 + x17 + x22 + x32 + x33 + x34 + x37 + x42 + x47 + x52 + x53 + x54 + x55 + x56 + x58 + x59 + x60 + x61 + x62 + x65 + x66 + x67 + x70 + x71 + x72 + x77 + x80 + x81 + x82 + x102 + x105 + x106 + x107 <= 7
c58:  +8 x58 + x8 + x9 + x13 + x18 + x23 + x33 + x34 + x38 + x43 + x48 + x53 + x54 + x55 + x56 + x57 + x59 + x60 + x61 + x62 + x63 + x65 + x66 + x67 + x68 + x70 + x71 + x72 + x73 + x78 + x80 + x81 + x82 + x83 + x103 + x105 + x106 + x107 + x108 <= 8
c59:  +8 x59 + x9 + x14 + x19 + x24 + x34 + x39 + x44 + x49 + x54 + x55 + x56 + x57 + x58 + x60 + x61 + x62 + x63 + x64 + x65 + x66 + x67 + x68 + x69 + x70 + x71 + x72 + x73 + x74 + x79 + x80 + x81 + x82 + x83 + x84 + x104 + x105 + x106 + x107 + x108 + x109 <= 8
c60:  +6 x60 + x10 + x11 + x12 + x13 + x14 + x15 + x20 + x35 + x36 + x37 + x38 + x39 + x40 + x45 + x50 + x51 + x52 + x53 + x54 + x55 + x56 + x57 + x58 + x59 + x61 + x62 + x63 + x64 + x65 + x70 + x75 + x80 + x85 + x100 + x105 + x110 <= 6
c61:  +7 x61 + x11 + x12 + x13 + x14 + x16 + x21 + x36 + x37 + x38 + x39 + x41 + x46 + x51 + x52 + x53 + x54 + x56 + x57 + x58 + x59 + x60 + x62 + x63 + x64 + x65 + x66 + x70 + x71 + x76 + x81 + x85 + x86 + x101 + x106 + x110 + x111 <= 7
c62:  +7 x62 + x12 + x13 + x14 + x17 + x22 + x37 + x38 + x39 + x42 + x47 + x52 + x53 + x54 + x57 + x58 + x59 + x60 + x61 + x63 + x64 + x65 + x66 + x67 + x70 + x71 + x72 + x77 + x82 + x85 + x86 + x87 + x102 + x107 + x110 + x111 + x112 <= 7
c63:  +7 x63 + x13 + x14 + x18 + x23 + x38 + x39 + x43 + x48 + x53 + x54 + x58 + x59 + x60 + x61 + x62 + x64 + x65 + x66 + x67 + x68 + x70 + x71 + x72 + x73 + x78 + x83 + x85 + x86 + x87 + x88 + x103 + x108 + x110 + x111 + x112 + x113 <= 7
c64:  +7 x64 + x14 + x19 + x24 + x39 + x44 + x49 + x54 + x59 + x60 + x61 + x62 + x63 + x65 + x66 + x67 + x68 + x69 + x70 + x71 + x72 + x73 + x74 + x79 + x84 + x85 + x86 + x87 + x88 + x89 + x104 + x109 + x110 + x111 + x112 + x113 + x114 <= 7
c65:  +8 x65 + x15 + x16 + x17 + x18 + x19 + x20 + x40 + x41 + x42 + x43 + x44 + x45 + x50 + x51 + x52 + x53 + x54 + x55 + x56 + x57 + x58 + x59 + x60 + x61 + x62 + x63 + x64 + x66 + x67 + x68 + x69 + x70 + x75 + x80 + x85 + x90 + x100 + x105 + x110 + x115 <= 8
c66:  +8 x66 + x16 + x17 + x18 + x19 + x21 + x41 + x42 + x43 + x44 + x46 + x51 + x52 + x53 + x54 + x56 + x57 + x58 + x59 + x61 + x62 + x63 + x64 + x65 + x67 + x68 + x69 + x70 + x71 + x76 + x81 + x86 + x90 + x91 + x101 + x106 + x111 + x115 + x116 <= 8
c67:  +7 x67 + x17 + x18 + x19 + x22 + x42 + x43 + x44 + x47 + x52 + x53 + x54 + x57 + x58 + x59 + x62 + x63 + x64 + x65 + x66 + x68 + x69 + x70 + x71 + x72 + x77 + x82 + x87 + x90 + x91 + x92 + x102 + x107 + x112 + x115 + x116 + x117 <= 7
c68:  +6 x68 + x18 + x19 + x23 + x43 + x44 + x48 + x53 + x54 + x58 + x59 + x63 + x64 + x65 + x66 + x67 + x69 + x70 + x71 + x72 + x73 + x78 + x83 + x88 + x90 + x91 + x92 + x93 + x103 + x108 + x113 + x115 + x116 + x117 + x118 <= 6
c69:  +5 x69 + x19 + x24 + x44 + x49 + x54 + x59 + x64 + x65 + x66 + x67 + x68 + x70 + x71 + x72 + x73 + x74 + x79 + x84 + x89 + x90 + x91 + x92 + x93 + x94 + x104 + x109 + x114 + x115 + x116 + x117 + x118 + x119 <= 5
c70:  +9 x70 + x20 + x21 + x22 + x23 + x24 + x45 + x46 + x47 + x48 + x49 + x50 + x51 + x52 + x53 + x54 + x55 + x56 + x57 + x58 + x59 + x60 + x61 + x62 + x63 + x64 + x65 + x66 + x67 + x68 + x69 + x71 + x72 + x73 + x74 + x75 + x80 + x85 + x90 + x95 + x100 + x105 + x110 + x115 + x120 <= 9
c71:  +8 x71 + x21 + x22 + x23 + x24 + x46 + x47 + x48 + x49 + x51 + x52 + x53 + x54 + x56 + x57 + x58 + x59 + x61 + x62 + x63 + x64 + x66 + x67 + x68 + x69 + x70 + x72 + x73 + x74 + x76 + x81 + x86 + x91 + x95 + x96 + x101 + x106 + x111 + x116 + x120 + x121 <= 8
c72:  +7 x72 + x22 + x23 + x24 + x47 + x48 + x49 + x52 + x53 + x54 + x57 + x58 + x59 + x62 + x63 + x64 + x67 + x68 + x69 + x70 + x71 + x73 + x74 + x77 + x82 + x87 + x92 + x95 + x96 + x97 + x102 + x107 + x112 + x117 + x120 + x121 + x122 <= 7
c73:  +5 x73 + x23 + x24 + x48 + x49 + x53 + x54 + x58 + x59 + x63 + x64 + x68 + x69 + x70 + x71 + x72 + x74 + x78 + x83 + x88 + x93 + x95 + x96 + x97 + x98 + x103 + x108 + x113 + x118 + x120 + x121 + x122 + x123 <= 5
c74:  +3 x74 + x24 + x49 + x54 + x59 + x64 + x69 + x70 + x71 + x72 + x73 + x79 + x84 + x89 + x94 + x95 + x96 + x97 + x98 + x99 + x104 + x109 + x114 + x119 + x120 + x121 + x122 + x123 + x124 <= 3
c75:  +4 x75 + x0 + x1 + x2 + x3 + x4 + x5 + x10 + x15 + x20 + x25 + x26 + x27 + x28 + x29 + x30 + x35 + x40 + x45 + x50 + x51 + x52 + x53 + x54 + x55 + x60 + x65 + x70 + x76 + x77 + x78 + x79 + x80 + x85 + x90 + x95 + x100 <= 4
c76:  +5 x76 + x1 + x2 + x3 + x4 + x6 + x11 + x16 + x21 + x26 + x27 + x28 + x29 + x31 + x36 + x41 + x46 + x51 + x52 + x53 + x54 + x56 + x61 + x66 + x71 + x75 + x77 + x78 + x79 + x80 + x81 + x85 + x86 + x90 + x91 + x95 + x96 + x100 + x101 <= 5
c77:  +7 x77 + x2 + x3 + x4 + x7 + x12 + x17 + x22 + x27 + x28 + x29 + x32 + x37 + x42 + x47 + x52 + x53 + x54 + x57 + x62 + x67 + x72 + x75 + x76 + x78 + x79 + x80 + x81 + x82 + x85 + x86 + x87 + x90 + x91 + x92 + x95 + x96 + x97 + x100 + x101 + x102 <= 7
c78:  +8 x78 + x3 + x4 + x8 + x13 + x18 + x23 + x28 + x29 + x33 + x38 + x43 + x48 + x53 + x54 + x58 + x63 + x68 + x73 + x75 + x76 + x77 + x79 + x80 + x81 + x82 + x83 + x85 + x86 + x87 + x88 + x90 + x91 + x92 + x93 + x95 + x96 + x97 + x98 + x100 + x101 + x102 + x103 <= 8
c79:  +9 x79 + x4 + x9 + x14 + x19 + x24 + x29 + x34 + x39 + x44 + x49 + x54 + x59 + x64 + x69 + x74 + x75 + x76 + x77 + x78 + x80 + x81 + x82 + x83 + x84 + x85 + x86 + x87 + x88 + x89 + x90 + x91 + x92 + x93 + x94 + x95 + x96 + x97 + x98 + x99 + x100 + x101 + x102 + x103 + x104 <= 9
c80:  +5 x80 + x5 + x6 + x7 + x8 + x9 + x10 + x15 + x20 + x30 + x31 + x32 + x33 + x34 + x35 + x40 + x45 + x55 + x56 + x57 + x58 + x59 + x60 + x65 + x70 + x75 + x76 + x77 + x78 + x79 + x81 + x82 + x83 + x84 + x85 + x90 + x95 + x100 + x105 <= 5
c81:  +6 x81 + x6 + x7 + x8 + x9 + x11 + x16 + x21 + x31 + x32 + x33 + x34 + x36 + x41 + x46 + x56 + x57 + x58 + x59 + x61 + x66 + x71 + x76 + x77 + x78 + x79 + x80 + x82 + x83 + x84 + x85 + x86 + x90 + x91 + x95 + x96 + x101 + x105 + x106 <= 6
c82:  +7 x82 + x7 + x8 + x9 + x12 + x17 + x22 + x32 + x33 + x34 + x37 + x42 + x47 + x57 + x58 + x59 + x62 + x67 + x72 + x77 + x78 + x79 + x80 + x81 + x83 + x84 + x85 + x86 + x87 + x90 + x91 + x92 + x95 + x96 + x97 + x102 + x105 + x106 + x107 <= 7
c83:  +8 x83 + x8 + x9 + x13 + x18 + x23 + x33 + x34 + x38 + x43 + x48 + x58 + x59 + x63 + x68 + x73 + x78 + x79 + x80 + x81 + x82 + x84 + x85 + x86 + x87 + x88 + x90 + x91 + x92 + x93 + x95 + x96 + x97 + x98 + x103 + x105 + x106 + x107 + x108 <= 8
c84:  +8 x84 + x9 + x14 + x19 + x24 + x34 + x39 + x44 + x49 + x59 + x64 + x69 + x74 + x79 + x80 + x81 + x82 + x83 + x85 + x86 + x87 + x88 + x89 + x90 + x91 + x92 + x93 + x94 + x95 + x96 + x97 + x98 + x99 + x104 + x105 + x106 + x107 + x108 + x109 <= 8
c85:  +7 x85 + x10 + x11 + x12 + x13 + x14 + x15 + x20 + x35 + x36 + x37 + x38 + x39 + x40 + x45 + x60 + x61 + x62 + x63 + x64 + x65 + x70 + x75 + x76 + x77 + x78 + x79 + x80 + x81 + x82 + x83 + x84 + x86 + x87 + x88 + x89 + x90 + x95 + x100 + x105 + x110 <= 7
c86:  +7 x86 + x11 + x12 + x13 + x14 + x16 + x21 + x36 + x37 + x38 + x39 + x41 + x46 + x61 + x62 + x63 + x64 + x66 + x71 + x76 + x77 + x78 + x79 + x81 + x82 + x83 + x84 + x85 + x87 + x88 + x89 + x90 + x91 + x95 + x96 + x101 + x106 + x110 + x111 <= 7
c87:  +7 x87 + x12 + x13 + x14 + x17 + x22 + x37 + x38 + x39 + x42 + x47 + x62 + x63 + x64 + x67 + x72 + x77 + x78 + x79 + x82 + x83 + x84 + x85 + x86 + x88 + x89 + x90 + x91 + x92 + x95 + x96 + x97 + x102 + x107 + x110 + x111 + x112 <= 7
c88:  +7 x88 + x13 + x14 + x18 + x23 + x38 + x39 + x43 + x48 + x63 + x64 + x68 + x73 + x78 + x79 + x83 + x84 + x85 + x86 + x87 + x89 + x90 + x91 + x92 + x93 + x95 + x96 + x97 + x98 + x103 + x108 + x110 + x111 + x112 + x113 <= 7
c89:  +6 x89 + x14 + x19 + x24 + x39 + x44 + x49 + x64 + x69 + x74 + x79 + x84 + x85 + x86 + x87 + x88 + x90 + x91 + x92 + x93 + x94 + x95 + x96 + x97 + x98 + x99 + x104 + x109 + x110 + x111 + x112 + x113 + x114 <= 6
c90:  +8 x90 + x15 + x16 + x17 + x18 + x19 + x20 + x40 + x41 + x42 + x43 + x44 + x45 + x65 + x66 + x67 + x68 + x69 + x70 + x75 + x76 + x77 + x78 + x79 + x80 + x81 + x82 + x83 + x84 + x85 + x86 + x87 + x88 + x89 + x91 + x92 + x93 + x94 + x95 + x100 + x105 + x110 + x115 <= 8
c91:  +8 x91 + x16 + x17 + x18 + x19 + x21 + x41 + x42 + x43 + x44 + x46 + x66 + x67 + x68 + x69 + x71 + x76 + x77 + x78 + x79 + x81 + x82 + x83 + x84 + x86 + x87 + x88 + x89 + x90 + x92 + x93 + x94 + x95 + x96 + x101 + x106 + x111 + x115 + x116 <= 8
c92:  +7 x92 + x17 + x18 + x19 + x22 + x42 + x43 + x44 + x47 + x67 + x68 + x69 + x72 + x77 + x78 + x79 + x82 + x83 + x84 + x87 + x88 + x89 + x90 + x91 + x93 + x94 + x95 + x96 + x97 + x102 + x107 + x112 + x115 + x116 + x117 <= 7
c93:  +6 x93 + x18 + x19 + x23 + x43 + x44 + x48 + x68 + x69 + x73 + x78 + x79 + x83 + x84 + x88 + x89 + x90 + x91 + x92 + x94 + x95 + x96 + x97 + x98 + x103 + x108 + x113 + x115 + x116 + x117 + x118 <= 6
c94:  +4 x94 + x19 + x24 + x44 + x49 + x69 + x74 + x79 + x84 + x89 + x90 + x91 + x92 + x93 + x95 + x96 + x97 + x98 + x99 + x104 + x109 + x114 + x115 + x116 + x117 + x118 + x119 <= 4
c95:  +9 x95 + x20 + x21 + x22 + x23 + x24 + x45 + x46 + x47 + x48 + x49 + x70 + x71 + x72 + x73 + x74 + x75 + x76 + x77 + x78 + x79 + x80 + x81 + x82 + x83 + x84 + x85 + x86 + x87 + x88 + x89 + x90 + x91 + x92 + x93 + x94 + x96 + x97 + x98 + x99 + x100 + x105 + x110 + x115 + x120 <= 9
c96:  +8 x96 + x21 + x22 + x23 + x24 + x46 + x47 + x48 + x49 + x71 + x72 + x73 + x74 + x76 + x77 + x78 + x79 + x81 + x82 + x83 + x84 + x86 + x87 + x88 + x89 + x91 + x92 + x93 + x94 + x95 + x97 + x98 + x99 + x101 + x106 + x111 + x116 + x120 + x121 <= 8
c97:  +6 x97 + x22 + x23 + x24 + x47 + x48 + x49 + x72 + x73 + x74 + x77 + x78 + x79 + x82 + x83 + x84 + x87 + x88 + x89 + x92 + x93 + x94 + x95 + x96 + x98 + x99 + x102 + x107 + x112 + x117 + x120 + x121 + x122 <= 6
c98:  +4 x98 + x23 + x24 + x48 + x49 + x73 + x74 + x78 + x79 + x83 + x84 + x88 + x89 + x93 + x94 + x95 + x96 + x97 + x99 + x103 + x108 + x113 + x118 + x120 + x121 + x122 + x123 <= 4
c99:  +2 x99 + x24 + x49 + x74 + x79 + x84 + x89 + x94 + x95 + x96 + x97 + x98 + x104 + x109 + x114 + x119 + x120 + x121 + x122 + x123 + x124 <= 2
c100:  +5 x100 + x0 + x1 + x2 + x3 + x4 + x5 + x10 + x15 + x20 + x25 + x26 + x27 + x28 + x29 + x30 + x35 + x40 + x45 + x50 + x51 + x52 + x53 + x54 + x55 + x60 + x65 + x70 + x75 + x76 + x77 + x78 + x79 + x80 + x85 + x90 + x95 + x101 + x102 + x103 + x104 + x105 + x110 + x115 + x120 <= 5
c101:  +6 x101 + x1 + x2 + x3 + x4 + x6 + x11 + x16 + x21 + x26 + x27 + x28 + x29 + x31 + x36 + x41 + x46 + x51 + x52 + x53 + x54 + x56 + x61 + x66 + x71 + x76 + x77 + x78 + x79 + x81 + x86 + x91 + x96 + x100 + x102 + x103 + x104 + x105 + x106 + x110 + x111 + x115 + x116 + x120 + x121 <= 6
c102:  +7 x102 + x2 + x3 + x4 + x7 + x12 + x17 + x22 + x27 + x28 + x29 + x32 + x37 + x42 + x47 + x52 + x53 + x54 + x57 + x62 + x67 + x72 + x77 + x78 + x79 + x82 + x87 + x92 + x97 + x100 + x101 + x103 + x104 + x105 + x106 + x107 + x110 + x111 + x112 + x115 + x116 + x117 + x120 + x121 + x122 <= 7
c103:  +8 x103 + x3 + x4 + x8 + x13 + x18 + x23 + x28 + x29 + x33 + x38 + x43 + x48 + x53 + x54 + x58 + x63 + x68 + x73 + x78 + x79 + x83 + x88 + x93 + x98 + x100 + x101 + x102 + x104 + x105 + x106 + x107 + x108 + x110 + x111 + x112 + x113 + x115 + x116 + x117 + x118 + x120 + x121 + x122 + x123 <= 8
c104:  +9 x104 + x4 + x9 + x14 + x19 + x24 + x29 + x34 + x39 + x44 + x49 + x54 + x59 + x64 + x69 + x74 + x79 + x84 + x89 + x94 + x99 + x100 + x101 + x102 + x103 + x105 + x106 + x107 + x108 + x109 + x110 + x111 + x112 + x113 + x114 + x115 + x116 + x117 + x118 + x119 + x120 + x121 + x122 + x123 + x124 <= 9
c105:  +6 x105 + x5 + x6 + x7 + x8 + x9 + x10 + x15 + x20 + x30 + x31 + x32 + x33 + x34 + x35 + x40 + x45 + x55 + x56 + x57 + x58 + x59 + x60 + x65 + x70 + x80 + x81 + x82 + x83 + x84 + x85 + x90 + x95 + x100 + x101 + x102 + x103 + x104 + x106 + x107 + x108 + x109 + x110 + x115 + x120 <= 6
c106:  +6 x106 + x6 + x7 + x8 + x9 + x11 + x16 + x21 + x31 + x32 + x33 + x34 + x36 + x41 + x46 + x56 + x57 + x58 + x59 + x61 + x66 + x71 + x81 + x82 + x83 + x84 + x86 + x91 + x96 + x101 + x102 + x103 + x104 + x105 + x107 + x108 + x109 + x110 + x111 + x115 + x116 + x120 + x121 <= 6
c107:  +7 x107 + x7 + x8 + x9 + x12 + x17 + x22 + x32 + x33 + x34 + x37 + x42 + x47 + x57 + x58 + x59 + x62 + x67 + x72 + x82 + x83 + x84 + x87 + x92 + x97 + x102 + x103 + x104 + x105 + x106 + x108 + x109 + x110 + x111 + x112 + x115 + x116 + x117 + x120 + x121 + x122 <= 7
c108:  +8 x108 + x8 + x9 + x13 + x18 + x23 + x33 + x34 + x38 + x43 + x48 + x58 + x59 + x63 + x68 + x73 + x83 + x84 + x88 + x93 + x98 + x103 + x104 + x105 + x106 + x107 + x109 + x110 + x111 + x112 + x113 + x115 + x116 + x117 + x118 + x120 + x121 + x122 + x123 <= 8
c109:  +7 x109 + x9 + x14 + x19 + x24 + x34 + x39 + x44 + x49 + x59 + x64 + x69 + x74 + x84 + x89 + x94 + x99 + x104 + x105 + x106 + x107 + x108 + x110 + x111 + x112 + x113 + x114 + x115 + x116 + x117 + x118 + x119 + x120 + x121 + x122 + x123 + x124 <= 7
c110:  +7 x110 + x10 + x11 + x12 + x13 + x14 + x15 + x20 + x35 + x36 + x37 + x38 + x39 + x40 + x45 + x60 + x61 + x62 + x63 + x64 + x65 + x70 + x85 + x86 + x87 + x88 + x89 + x90 + x95 + x100 + x101 + x102 + x103 + x104 + x105 + x106 + x107 + x108 + x109 + x111 + x112 + x113 + x114 + x115 + x120 <= 7
c111:  +7 x111 + x11 + x12 + x13 + x14 + x16 + x21 + x36 + x37 + x38 + x39 + x41 + x46 + x61 + x62 + x63 + x64 + x66 + x71 + x86 + x87 + x88 + x89 + x91 + x96 + x101 + x102 + x103 + x104 + x106 + x107 + x108 + x109 + x110 + x112 + x113 + x114 + x115 + x116 + x120 + x121 <= 7
c112:  +7 x112 + x12 + x13 + x14 + x17 + x22 + x37 + x38 + x39 + x42 + x47 + x62 + x63 + x64 + x67 + x72 + x87 + x88 + x89 + x92 + x97 + x102 + x103 + x104 + x107 + x108 + x109 + x110 + x111 + x113 + x114 + x115 + x116 + x117 + x120 + x121 + x122 <= 7
c113:  +7 x113 + x13 + x14 + x18 + x23 + x38 + x39 + x43 + x48 + x63 + x64 + x68 + x73 + x88 + x89 + x93 + x98 + x103 + x104 + x108 + x109 + x110 + x111 + x112 + x114 + x115 + x116 + x117 + x118 + x120 + x121 + x122 + x123 <= 7
c114:  +5 x114 + x14 + x19 + x24 + x39 + x44 + x49 + x64 + x69 + x74 + x89 + x94 + x99 + x104 + x109 + x110 + x111 + x112 + x113 + x115 + x116 + x117 + x118 + x119 + x120 + x121 + x122 + x123 + x124 <= 5
c115:  +8 x115 + x15 + x16 + x17 + x18 + x19 + x20 + x40 + x41 + x42 + x43 + x44 + x45 + x65 + x66 + x67 + x68 + x69 + x70 + x90 + x91 + x92 + x93 + x94 + x95 + x100 + x101 + x102 + x103 + x104 + x105 + x106 + x107 + x108 + x109 + x110 + x111 + x112 + x113 + x114 + x116 + x117 + x118 + x119 + x120 <= 8
c116:  +8 x116 + x16 + x17 + x18 + x19 + x21 + x41 + x42 + x43 + x44 + x46 + x66 + x67 + x68 + x69 + x71 + x91 + x92 + x93 + x94 + x96 + x101 + x102 + x103 + x104 + x106 + x107 + x108 + x109 + x111 + x112 + x113 + x114 + x115 + x117 + x118 + x119 + x120 + x121 <= 8
c117:  +7 x117 + x17 + x18 + x19 + x22 + x42 + x43 + x44 + x47 + x67 + x68 + x69 + x72 + x92 + x93 + x94 + x97 + x102 + x103 + x104 + x107 + x108 + x109 + x112 + x113 + x114 + x115 + x116 + x118 + x119 + x120 + x121 + x122 <= 7
c118:  +6 x118 + x18 + x19 + x23 + x43 + x44 + x48 + x68 + x69 + x73 + x93 + x94 + x98 + x103 + x104 + x108 + x109 + x113 + x114 + x115 + x116 + x117 + x119 + x120 + x121 + x122 + x123 <= 6
c119:  +3 x119 + x19 + x24 + x44 + x49 + x69 + x74 + x94 + x99 + x104 + x109 + x114 + x115 + x116 + x117 + x118 + x120 + x121 + x122 + x123 + x124 <= 3
c120:  +9 x120 + x20 + x21 + x22 + x23 + x24 + x45 + x46 + x47 + x48 + x49 + x70 + x71 + x72 + x73 + x74 + x95 + x96 + x97 + x98 + x99 + x100 + x101 + x102 + x103 + x104 + x105 + x106 + x107 + x108 + x109 + x110 + x111 + x112 + x113 + x114 + x115 + x116 + x117 + x118 + x119 + x121 + x122 + x123 + x124 <= 9
c121:  +7 x121 + x21 + x22 + x23 + x24 + x46 + x47 + x48 + x49 + x71 + x72 + x73 + x74 + x96 + x97 + x98 + x99 + x101 + x102 + x103 + x104 + x106 + x107 + x108 + x109 + x111 + x112 + x113 + x114 + x116 + x117 + x118 + x119 + x120 + x122 + x123 + x124 <= 7
c122:  +5 x122 + x22 + x23 + x24 + x47 + x48 + x49 + x72 + x73 + x74 + x97 + x98 + x99 + x102 + x103 + x104 + x107 + x108 + x109 + x112 + x113 + x114 + x117 + x118 + x119 + x120 + x121 + x123 + x124 <= 5
c123:  +3 x123 + x23 + x24 + x48 + x49 + x73 + x74 + x98 + x99 + x103 + x104 + x108 + x109 + x113 + x114 + x118 + x119 + x120 + x121 + x122 + x124 <= 3
c124:  +1 x124 + x24 + x49 + x74 + x99 + x104 + x109 + x114 + x119 + x120 + x121 + x122 + x123 <= 1



Binary
x0
x1
x2
x3
x4
x5
x6
x7
x8
x9
x10
x11
x12
x13
x14
x15
x16
x17
x18
x19
x20
x21
x22
x23
x24
x25
x26
x27
x28
x29
x30
x31
x32
x33
x34
x35
x36
x37
x38
x39
x40
x41
x42
x43
x44
x45
x46
x47
x48
x49
x50
x51
x52
x53
x54
x55
x56
x57
x58
x59
x60
x61
x62
x63
x64
x65
x66
x67
x68
x69
x70
x71
x72
x73
x74
x75
x76
x77
x78
x79
x80
x81
x82
x83
x84
x85
x86
x87
x88
x89
x90
x91
x92
x93
x94
x95
x96
x97
x98
x99
x100
x101
x102
x103
x104
x105
x106
x107
x108
x109
x110
x111
x112
x113
x114
x115
x116
x117
x118
x119
x120
x121
x122
x123
x124


End